
Gurobi 9.1.2 (win64, Java) logging started Sat Nov 13 14:01:49 2021

Academic license - for non-commercial use only - expires 2022-10-30
Gurobi Optimizer version 9.1.2 build v9.1.2rc0 (win64)
Thread count: 6 physical cores, 12 logical processors, using up to 12 threads
Optimize a model with 50 rows, 400 columns and 800 nonzeros
Model fingerprint: 0xa895263f
Variable types: 0 continuous, 400 integer (400 binary)
Coefficient statistics:
  Matrix range     [1e+00, 1e+03]
  Objective range  [4e+02, 1e+03]
  Bounds range     [1e+00, 1e+00]
  RHS range        [1e+00, 2e+03]
Found heuristic solution: objective 18145.000000
Presolve removed 1 rows and 102 columns
Presolve time: 0.00s
Presolved: 49 rows, 298 columns, 596 nonzeros
Variable types: 0 continuous, 298 integer (298 binary)
Presolved: 49 rows, 298 columns, 596 nonzeros


Root relaxation: objective 2.115545e+04, 170 iterations, 0.00 seconds

    Nodes    |    Current Node    |     Objective Bounds      |     Work
 Expl Unexpl |  Obj  Depth IntInf | Incumbent    BestBd   Gap | It/Node Time

     0     0 21155.4477    0   14 18145.0000 21155.4477  16.6%     -    0s
H    0     0                    19729.000000 21155.4477  7.23%     -    0s
H    0     0                    19873.000000 21155.4477  6.45%     -    0s
H    0     0                    20053.000000 21155.4477  5.50%     -    0s
H    0     0                    20132.000000 21155.4477  5.08%     -    0s
     0     0 21137.6857    0   30 20132.0000 21137.6857  5.00%     -    0s
     0     0 21137.6857    0   26 20132.0000 21137.6857  5.00%     -    0s
H    0     0                    20221.000000 21137.6857  4.53%     -    0s
     0     0 21137.6857    0   23 20221.0000 21137.6857  4.53%     -    0s
H    0     0                    20444.000000 21137.6857  3.39%     -    0s
     0     0 21136.6860    0   30 20444.0000 21136.6860  3.39%     -    0s
     0     0 21136.6043    0   29 20444.0000 21136.6043  3.39%     -    0s
     0     0 21136.6023    0   32 20444.0000 21136.6023  3.39%     -    0s
H    0     0                    20611.000000 21136.6023  2.55%     -    0s
     0     0 21135.9352    0   27 20611.0000 21135.9352  2.55%     -    0s
     0     0 21135.7937    0   34 20611.0000 21135.7937  2.55%     -    0s
     0     0 21135.7173    0   35 20611.0000 21135.7173  2.55%     -    0s
     0     0 21135.7061    0   37 20611.0000 21135.7061  2.55%     -    0s
     0     0 21135.3433    0   31 20611.0000 21135.3433  2.54%     -    0s
     0     0 21135.1193    0   32 20611.0000 21135.1193  2.54%     -    0s
     0     0 21135.0620    0   32 20611.0000 21135.0620  2.54%     -    0s
     0     0 21135.0620    0   29 20611.0000 21135.0620  2.54%     -    0s
H    0     0                    20655.000000 21135.0620  2.32%     -    0s
     0     0 21134.9176    0   39 20655.0000 21134.9176  2.32%     -    0s
     0     0 21134.9004    0   32 20655.0000 21134.9004  2.32%     -    0s
     0     0 21134.8931    0   40 20655.0000 21134.8931  2.32%     -    0s
     0     0 21134.8720    0   41 20655.0000 21134.8720  2.32%     -    0s
     0     0 21134.8720    0   36 20655.0000 21134.8720  2.32%     -    0s
H    0     0                    20673.000000 21134.8720  2.23%     -    0s
     0     2 21134.8720    0   36 20673.0000 21134.8720  2.23%     -    0s
H   35    44                    20675.000000 21134.8475  2.22%  28.4    0s
H   39    44                    20688.000000 21134.8475  2.16%  26.5    0s
H  930   853                    20692.000000 21134.8475  2.14%   8.7    0s
H 1343  1050                    20696.000000 20730.7848  0.17%   9.5    1s
H 1426  1060                    20702.000000 20728.5402  0.13%  18.1    2s
 10156  4486 20713.0004   82   23 20702.0000 20728.0004  0.13%  33.8    5s
H13796  5007                    20709.000000 20728.0004  0.09%  32.2    5s
H24828  3709                    20720.000000 20728.0004  0.04%  32.8    8s
H27447  2599                    20722.000000 20727.7190  0.03%  33.3    9s
 28760  2852 20726.6267   43   41 20722.0000 20727.0004  0.02%  33.9   10s
H41485  2275                    20724.000000 20726.0004  0.01%  38.0   14s
 41833  2000 20726.0004   50   47 20724.0000 20726.0004  0.01%  38.1   17s
 44724  1919 20726.0004   49   39 20724.0000 20726.0004  0.01%  41.1   20s

Cutting planes:
  Gomory: 12
  Cover: 749
  Clique: 6
  MIR: 109
  StrongCG: 89
  Flow cover: 9
  Zero half: 3
  RLT: 1

Explored 56351 nodes (2295523 simplex iterations) in 24.41 seconds
Thread count was 12 (of 12 available processors)

Solution count 10: 20724 20722 20720 ... 20673

Optimal solution found (tolerance 1.00e-12)
Best objective 2.072400000000e+04, best bound 2.072400000000e+04, gap 0.0000%
